65
Lattice="9.95606347910659 0.0 0.0 4.978031739553295 8.622203894596787 0.0 0.0 0.0 26.09681884264245" Properties=species:S:1:pos:R:3:move_mask:L:1:tags:I:1 pbc="T T F"
Ni       0.00000000       0.00000000      10.00000000  F        4
Ni       2.48901587       0.00000000      10.00000000  F        4
Fe       4.97803174       0.00000000      10.00000000  F        4
Ni       7.46704761       0.00000000      10.00000000  F        4
Ni       1.24450793       2.15555097      10.00000000  F        4
Ni       3.73352380       2.15555097      10.00000000  F        4
Ni       6.22253967       2.15555097      10.00000000  F        4
Fe       8.71155554       2.15555097      10.00000000  F        4
Ni       2.48901587       4.31110195      10.00000000  F        4
Fe       4.97803174       4.31110195      10.00000000  F        4
Ni       7.46704761       4.31110195      10.00000000  F        4
Ni       9.95606348       4.31110195      10.00000000  F        4
Ni       3.73352380       6.46665292      10.00000000  F        4
Ni       6.22253967       6.46665292      10.00000000  F        4
Mo       8.71155554       6.46665292      10.00000000  F        4
Ni      11.20057141       6.46665292      10.00000000  F        4
Ni       1.24450793       0.71851699      12.03227295  F        3
Mo       3.73352380       0.71851699      12.03227295  F        3
Ni       6.22253967       0.71851699      12.03227295  F        3
Ni       8.71155554       0.71851699      12.03227295  F        3
Ni       2.48901587       2.87406796      12.03227295  F        3
Ni       4.97803174       2.87406796      12.03227295  F        3
Ni       7.46704761       2.87406796      12.03227295  F        3
Ni       9.95606348       2.87406796      12.03227295  F        3
Ni       3.73352380       5.02961894      12.03227295  F        3
Ni       6.22253967       5.02961894      12.03227295  F        3
Ni       8.71155554       5.02961894      12.03227295  F        3
Ni      11.20057141       5.02961894      12.03227295  F        3
Mo       4.97803174       7.18516991      12.03227295  F        3
Fe       7.46704761       7.18516991      12.03227295  F        3
Mo       9.95606348       7.18516991      12.03227295  F        3
Ni      12.44507935       7.18516991      12.03227295  F        3
Mo       0.00000000       1.43703398      14.06454590  T        2
Mo       2.48901587       1.43703398      14.06454590  T        2
Mo       4.97803174       1.43703398      14.06454590  T        2
Mo       7.46704761       1.43703398      14.06454590  T        2
Ni       1.24450793       3.59258496      14.06454590  T        2
Ni       3.73352380       3.59258496      14.06454590  T        2
Ni       6.22253967       3.59258496      14.06454590  T        2
Mo       8.71155554       3.59258496      14.06454590  T        2
Mo       2.48901587       5.74813593      14.06454590  T        2
Ni       4.97803174       5.74813593      14.06454590  T        2
Ni       7.46704761       5.74813593      14.06454590  T        2
Ni       9.95606348       5.74813593      14.06454590  T        2
Ni       3.73352380       7.90368690      14.06454590  T        2
Mo       6.22253967       7.90368690      14.06454590  T        2
Mo       8.71155554       7.90368690      14.06454590  T        2
Ni      11.20057141       7.90368690      14.06454590  T        2
Ni       0.00000000       0.00000000      16.09681884  T        1
Mo       2.48901587       0.00000000      16.09681884  T        1
Ni       4.97803174       0.00000000      16.09681884  T        1
Mo       7.46704761       0.00000000      16.09681884  T        1
Ni       1.24450793       2.15555097      16.09681884  T        1
Ni       3.73352380       2.15555097      16.09681884  T        1
Ni       6.22253967       2.15555097      16.09681884  T        1
Ni       8.71155554       2.15555097      16.09681884  T        1
Mo       2.48901587       4.31110195      16.09681884  T        1
Ni       4.97803174       4.31110195      16.09681884  T        1
Mo       7.46704761       4.31110195      16.09681884  T        1
Mo       9.95606348       4.31110195      16.09681884  T        1
Ni       3.73352380       6.46665292      16.09681884  T        1
Ni       6.22253967       6.46665292      16.09681884  T        1
Ni       8.71155554       6.46665292      16.09681884  T        1
Mo      11.20057141       6.46665292      16.09681884  T        1
H        0.00000000       0.00000000      17.59681884  T        0
